(set-info :smt-lib-version 2.6)
(set-logic ALIA)
(set-info :source |
Generated by the tool Ultimate Automizer [1,2] which implements
an automata theoretic approach [3] to software verification.

This SMT script belongs to a set of SMT scripts that was generated by
applying Ultimate Automizer to benchmarks [4] from the SV-COMP 2023 [5,6].
This script may not contain all SMT commands that Ultimate Automizer
issued. In order to meet the restrictions for SMT-COMP benchmarks 
we dropped the commands for getting values (resp. models), 
unsatisfiable cores, and interpolants.

2023-03-21, Matthias Heizmann (heizmann@informatik.uni-freiburg.de)

[1] https://ultimate.informatik.uni-freiburg.de/automizer/
[2] Matthias Heizmann, Max Barth, Daniel Dietsch, Leonard Fichtner,
     Jochen Hoenicke, Dominik Klumpp, Mehdi Naouar, Tanja Schindler,
     Frank Schüssele, Andreas Podelski: Ultimate Automizer and the
     CommuHash Normal Form (Competition Contribution). TACAS 2023
[3] Matthias Heizmann, Jochen Hoenicke, Andreas Podelski: Software Model
     Checking for People Who Love Automata. CAV 2013
[4] https://github.com/sosy-lab/sv-benchmarks
[5] Dirk Beyer: Competition on Software Verification and
     Witness Validation: SV-COMP 2023.  TACAS 2023
[6] https://sv-comp.sosy-lab.org/2023/
|)
(set-info :license "https://creativecommons.org/licenses/by/4.0/")
(set-info :category "industrial")
(set-info :status unknown)
(declare-fun ~unnamed0~0~P_ALL () Int)
(declare-fun ~unnamed0~0~P_PID () Int)
(declare-fun ~unnamed0~0~P_PGID () Int)
(declare-fun |c_#valid| () (Array Int Int))
(declare-fun |c_#memory_int| () (Array Int (Array Int Int)))
(declare-fun |c_#memory_$Pointer$.base| () (Array Int (Array Int Int)))
(declare-fun |c_#memory_$Pointer$.offset| () (Array Int (Array Int Int)))
(declare-fun |c_ULTIMATE.start_main_~data_init~0#1| () Int)
(declare-fun |c_ULTIMATE.start_sll_circular_create_~new_head~0#1.base| () Int)
(declare-fun |c_ULTIMATE.start_sll_circular_create_~new_head~0#1.offset| () Int)
(declare-fun |c_ULTIMATE.start_sll_circular_create_~data#1| () Int)
(declare-fun |c_ULTIMATE.start_sll_circular_create_~last~0#1.base| () Int)
(declare-fun |c_ULTIMATE.start_sll_circular_create_~last~0#1.offset| () Int)
(declare-fun |c_ULTIMATE.start_sll_circular_create_~head~0#1.base| () Int)
(declare-fun |c_ULTIMATE.start_sll_circular_create_~head~0#1.offset| () Int)
(assert (= ~unnamed0~0~P_ALL 0))
(assert (= ~unnamed0~0~P_PID 1))
(assert (= 2 ~unnamed0~0~P_PGID))
(assert (let ((.cse0 (select (select |c_#memory_$Pointer$.base| |c_ULTIMATE.start_sll_circular_create_~head~0#1.base|) 0))) (and (not (= |c_ULTIMATE.start_sll_circular_create_~head~0#1.base| |c_ULTIMATE.start_sll_circular_create_~last~0#1.base|)) (= |c_ULTIMATE.start_sll_circular_create_~data#1| 1) (not (= |c_ULTIMATE.start_sll_circular_create_~last~0#1.base| |c_ULTIMATE.start_sll_circular_create_~new_head~0#1.base|)) (= (select (select |c_#memory_int| .cse0) 8) 1) (not (= |c_ULTIMATE.start_sll_circular_create_~last~0#1.base| .cse0)) (= (select (select |c_#memory_int| |c_ULTIMATE.start_sll_circular_create_~head~0#1.base|) 8) 1) (= 0 (select (select |c_#memory_$Pointer$.offset| |c_ULTIMATE.start_sll_circular_create_~head~0#1.base|) 0)) (= (select |c_#valid| |c_ULTIMATE.start_sll_circular_create_~last~0#1.base|) 1) (= |c_ULTIMATE.start_sll_circular_create_~last~0#1.offset| 0) (= |c_ULTIMATE.start_sll_circular_create_~head~0#1.offset| 0) (forall ((|ULTIMATE.start_sll_circular_create_~new_head~0#1.base| Int)) (or (= |ULTIMATE.start_sll_circular_create_~new_head~0#1.base| |c_ULTIMATE.start_sll_circular_create_~head~0#1.base|) (forall ((|ULTIMATE.start_sll_circular_create_~last~0#1.base| Int)) (or (= |ULTIMATE.start_sll_circular_create_~new_head~0#1.base| |ULTIMATE.start_sll_circular_create_~last~0#1.base|) (forall ((v_ArrVal_388 Int) (v_ArrVal_384 (Array Int Int)) (v_ArrVal_398 (Array Int Int))) (= (select (select (store (let ((.cse1 (store |c_#memory_int| |ULTIMATE.start_sll_circular_create_~new_head~0#1.base| v_ArrVal_384))) (store .cse1 |ULTIMATE.start_sll_circular_create_~last~0#1.base| (store (select .cse1 |ULTIMATE.start_sll_circular_create_~last~0#1.base|) |c_ULTIMATE.start_sll_circular_create_~last~0#1.offset| v_ArrVal_388))) |ULTIMATE.start_sll_circular_create_~new_head~0#1.base| v_ArrVal_398) |c_ULTIMATE.start_sll_circular_create_~head~0#1.base|) (+ |c_ULTIMATE.start_sll_circular_create_~head~0#1.offset| 8)) |c_ULTIMATE.start_main_~data_init~0#1|)))))) (= |c_ULTIMATE.start_sll_circular_create_~new_head~0#1.offset| 0))))
(assert (not (let ((.cse29 (select (select |c_#memory_$Pointer$.base| |c_ULTIMATE.start_sll_circular_create_~head~0#1.base|) 0)) (.cse31 (= |c_ULTIMATE.start_sll_circular_create_~head~0#1.base| |c_ULTIMATE.start_sll_circular_create_~last~0#1.base|))) (let ((.cse5 (= |c_ULTIMATE.start_sll_circular_create_~last~0#1.base| |c_ULTIMATE.start_sll_circular_create_~new_head~0#1.base|)) (.cse4 (not .cse31)) (.cse7 (= (select (select |c_#memory_int| |c_ULTIMATE.start_sll_circular_create_~head~0#1.base|) 8) 1)) (.cse16 (= |c_ULTIMATE.start_sll_circular_create_~last~0#1.offset| |c_ULTIMATE.start_sll_circular_create_~new_head~0#1.offset|)) (.cse0 (+ 8 |c_ULTIMATE.start_sll_circular_create_~new_head~0#1.offset|)) (.cse20 (= 0 (select (select |c_#memory_$Pointer$.offset| |c_ULTIMATE.start_sll_circular_create_~head~0#1.base|) 0))) (.cse8 (= |c_ULTIMATE.start_main_~data_init~0#1| 1)) (.cse6 (= |c_ULTIMATE.start_sll_circular_create_~head~0#1.offset| 0)) (.cse2 (+ |c_ULTIMATE.start_sll_circular_create_~head~0#1.offset| 8)) (.cse28 (= (select (select |c_#memory_int| .cse29) 8) 1)) (.cse30 (= |c_ULTIMATE.start_sll_circular_create_~head~0#1.base| .cse29))) (and (forall ((|ULTIMATE.start_sll_circular_create_~new_head~0#1.base| Int)) (or (forall ((|ULTIMATE.start_sll_circular_create_~last~0#1.base| Int)) (or (= |ULTIMATE.start_sll_circular_create_~new_head~0#1.base| |ULTIMATE.start_sll_circular_create_~last~0#1.base|) (forall ((v_ArrVal_388 Int) (v_ArrVal_384 (Array Int Int)) (v_ArrVal_398 (Array Int Int))) (let ((.cse1 (select (store (let ((.cse3 (store |c_#memory_int| |ULTIMATE.start_sll_circular_create_~new_head~0#1.base| v_ArrVal_384))) (store .cse3 |ULTIMATE.start_sll_circular_create_~last~0#1.base| (store (select .cse3 |ULTIMATE.start_sll_circular_create_~last~0#1.base|) |c_ULTIMATE.start_sll_circular_create_~last~0#1.offset| v_ArrVal_388))) |ULTIMATE.start_sll_circular_create_~new_head~0#1.base| v_ArrVal_398) |c_ULTIMATE.start_sll_circular_create_~head~0#1.base|))) (or (= |c_ULTIMATE.start_main_~data_init~0#1| (select v_ArrVal_398 .cse0)) (= (select .cse1 .cse2) |c_ULTIMATE.start_main_~data_init~0#1|) (= (select .cse1 .cse0) |c_ULTIMATE.start_main_~data_init~0#1|)))))) (= |ULTIMATE.start_sll_circular_create_~new_head~0#1.base| |c_ULTIMATE.start_sll_circular_create_~head~0#1.base|))) .cse4 (= |c_ULTIMATE.start_sll_circular_create_~data#1| 1) (not .cse5) (or .cse5 (and .cse6 (or (and .cse4 .cse7 .cse8) (= |c_ULTIMATE.start_sll_circular_create_~head~0#1.base| |c_ULTIMATE.start_sll_circular_create_~new_head~0#1.base|)))) (or (and (forall ((|ULTIMATE.start_sll_circular_create_~last~0#1.base| Int) (|ULTIMATE.start_sll_circular_create_~new_head~0#1.base| Int)) (or (= |ULTIMATE.start_sll_circular_create_~new_head~0#1.base| |ULTIMATE.start_sll_circular_create_~last~0#1.base|) (forall ((v_ArrVal_388 Int) (v_ArrVal_384 (Array Int Int)) (v_ArrVal_398 (Array Int Int))) (let ((.cse9 (select (store (let ((.cse10 (store |c_#memory_int| |ULTIMATE.start_sll_circular_create_~new_head~0#1.base| v_ArrVal_384))) (store .cse10 |ULTIMATE.start_sll_circular_create_~last~0#1.base| (store (select .cse10 |ULTIMATE.start_sll_circular_create_~last~0#1.base|) |c_ULTIMATE.start_sll_circular_create_~last~0#1.offset| v_ArrVal_388))) |ULTIMATE.start_sll_circular_create_~new_head~0#1.base| v_ArrVal_398) |c_ULTIMATE.start_sll_circular_create_~head~0#1.base|))) (or (= |c_ULTIMATE.start_main_~data_init~0#1| (select v_ArrVal_398 .cse0)) (= (select .cse9 .cse2) |c_ULTIMATE.start_main_~data_init~0#1|) (= (select .cse9 .cse0) |c_ULTIMATE.start_main_~data_init~0#1|)))))) (or (and (forall ((v_ArrVal_388 Int) (v_ArrVal_384 (Array Int Int)) (|ULTIMATE.start_sll_circular_create_~last~0#1.base| Int) (|ULTIMATE.start_sll_circular_create_~new_head~0#1.base| Int) (v_ArrVal_398 (Array Int Int))) (= (select (select (store (let ((.cse11 (store |c_#memory_int| |ULTIMATE.start_sll_circular_create_~new_head~0#1.base| v_ArrVal_384))) (store .cse11 |ULTIMATE.start_sll_circular_create_~last~0#1.base| (store (select .cse11 |ULTIMATE.start_sll_circular_create_~last~0#1.base|) |c_ULTIMATE.start_sll_circular_create_~last~0#1.offset| v_ArrVal_388))) |ULTIMATE.start_sll_circular_create_~new_head~0#1.base| v_ArrVal_398) |c_ULTIMATE.start_sll_circular_create_~head~0#1.base|) .cse2) |c_ULTIMATE.start_main_~data_init~0#1|)) (forall ((v_ArrVal_388 Int) (v_ArrVal_384 (Array Int Int)) (|ULTIMATE.start_sll_circular_create_~last~0#1.base| Int) (|ULTIMATE.start_sll_circular_create_~new_head~0#1.base| Int) (v_ArrVal_398 (Array Int Int))) (let ((.cse12 (select (store (let ((.cse13 (store |c_#memory_int| |ULTIMATE.start_sll_circular_create_~new_head~0#1.base| v_ArrVal_384))) (store .cse13 |ULTIMATE.start_sll_circular_create_~last~0#1.base| (store (select .cse13 |ULTIMATE.start_sll_circular_create_~last~0#1.base|) |c_ULTIMATE.start_sll_circular_create_~last~0#1.offset| v_ArrVal_388))) |ULTIMATE.start_sll_circular_create_~new_head~0#1.base| v_ArrVal_398) |c_ULTIMATE.start_sll_circular_create_~head~0#1.base|))) (or (= |c_ULTIMATE.start_main_~data_init~0#1| (select v_ArrVal_398 .cse0)) (= (select .cse12 .cse2) |c_ULTIMATE.start_main_~data_init~0#1|) (= (select .cse12 .cse0) |c_ULTIMATE.start_main_~data_init~0#1|)))) (forall ((v_ArrVal_388 Int) (v_ArrVal_384 (Array Int Int)) (|ULTIMATE.start_sll_circular_create_~last~0#1.base| Int) (|ULTIMATE.start_sll_circular_create_~new_head~0#1.base| Int) (v_ArrVal_398 (Array Int Int))) (let ((.cse14 (select (store (let ((.cse15 (store |c_#memory_int| |ULTIMATE.start_sll_circular_create_~new_head~0#1.base| v_ArrVal_384))) (store .cse15 |ULTIMATE.start_sll_circular_create_~last~0#1.base| (store (select .cse15 |ULTIMATE.start_sll_circular_create_~last~0#1.base|) |c_ULTIMATE.start_sll_circular_create_~last~0#1.offset| v_ArrVal_388))) |ULTIMATE.start_sll_circular_create_~new_head~0#1.base| v_ArrVal_398) |c_ULTIMATE.start_sll_circular_create_~head~0#1.base|))) (or (= (select .cse14 .cse2) |c_ULTIMATE.start_main_~data_init~0#1|) (= (select .cse14 .cse0) |c_ULTIMATE.start_main_~data_init~0#1|))))) .cse16) (forall ((|ULTIMATE.start_sll_circular_create_~last~0#1.base| Int) (|ULTIMATE.start_sll_circular_create_~new_head~0#1.base| Int)) (or (= |ULTIMATE.start_sll_circular_create_~new_head~0#1.base| |ULTIMATE.start_sll_circular_create_~last~0#1.base|) (forall ((v_ArrVal_388 Int) (v_ArrVal_384 (Array Int Int)) (v_ArrVal_398 (Array Int Int))) (let ((.cse17 (select (store (let ((.cse18 (store |c_#memory_int| |ULTIMATE.start_sll_circular_create_~new_head~0#1.base| v_ArrVal_384))) (store .cse18 |ULTIMATE.start_sll_circular_create_~last~0#1.base| (store (select .cse18 |ULTIMATE.start_sll_circular_create_~last~0#1.base|) |c_ULTIMATE.start_sll_circular_create_~last~0#1.offset| v_ArrVal_388))) |ULTIMATE.start_sll_circular_create_~new_head~0#1.base| v_ArrVal_398) |c_ULTIMATE.start_sll_circular_create_~head~0#1.base|))) (or (= (select .cse17 .cse2) |c_ULTIMATE.start_main_~data_init~0#1|) (= (select .cse17 .cse0) |c_ULTIMATE.start_main_~data_init~0#1|)))))) (forall ((|ULTIMATE.start_sll_circular_create_~last~0#1.base| Int) (|ULTIMATE.start_sll_circular_create_~new_head~0#1.base| Int)) (or (= |ULTIMATE.start_sll_circular_create_~new_head~0#1.base| |ULTIMATE.start_sll_circular_create_~last~0#1.base|) (forall ((v_ArrVal_388 Int) (v_ArrVal_384 (Array Int Int)) (v_ArrVal_398 (Array Int Int))) (= (select (select (store (let ((.cse19 (store |c_#memory_int| |ULTIMATE.start_sll_circular_create_~new_head~0#1.base| v_ArrVal_384))) (store .cse19 |ULTIMATE.start_sll_circular_create_~last~0#1.base| (store (select .cse19 |ULTIMATE.start_sll_circular_create_~last~0#1.base|) |c_ULTIMATE.start_sll_circular_create_~last~0#1.offset| v_ArrVal_388))) |ULTIMATE.start_sll_circular_create_~new_head~0#1.base| v_ArrVal_398) |c_ULTIMATE.start_sll_circular_create_~head~0#1.base|) .cse2) |c_ULTIMATE.start_main_~data_init~0#1|))))) (= |c_ULTIMATE.start_sll_circular_create_~head~0#1.offset| |c_ULTIMATE.start_sll_circular_create_~new_head~0#1.offset|)) .cse7 .cse20 (or (and (forall ((|ULTIMATE.start_sll_circular_create_~new_head~0#1.base| Int)) (or (= |ULTIMATE.start_sll_circular_create_~new_head~0#1.base| |c_ULTIMATE.start_sll_circular_create_~head~0#1.base|) (forall ((v_ArrVal_388 Int) (v_ArrVal_384 (Array Int Int)) (|ULTIMATE.start_sll_circular_create_~last~0#1.base| Int) (v_ArrVal_398 (Array Int Int))) (= (select (select (store (let ((.cse21 (store |c_#memory_int| |ULTIMATE.start_sll_circular_create_~new_head~0#1.base| v_ArrVal_384))) (store .cse21 |ULTIMATE.start_sll_circular_create_~last~0#1.base| (store (select .cse21 |ULTIMATE.start_sll_circular_create_~last~0#1.base|) |c_ULTIMATE.start_sll_circular_create_~last~0#1.offset| v_ArrVal_388))) |ULTIMATE.start_sll_circular_create_~new_head~0#1.base| v_ArrVal_398) |c_ULTIMATE.start_sll_circular_create_~head~0#1.base|) .cse2) |c_ULTIMATE.start_main_~data_init~0#1|)))) (forall ((|ULTIMATE.start_sll_circular_create_~new_head~0#1.base| Int)) (or (= |ULTIMATE.start_sll_circular_create_~new_head~0#1.base| |c_ULTIMATE.start_sll_circular_create_~head~0#1.base|) (forall ((v_ArrVal_388 Int) (v_ArrVal_384 (Array Int Int)) (|ULTIMATE.start_sll_circular_create_~last~0#1.base| Int) (v_ArrVal_398 (Array Int Int))) (let ((.cse22 (select (store (let ((.cse23 (store |c_#memory_int| |ULTIMATE.start_sll_circular_create_~new_head~0#1.base| v_ArrVal_384))) (store .cse23 |ULTIMATE.start_sll_circular_create_~last~0#1.base| (store (select .cse23 |ULTIMATE.start_sll_circular_create_~last~0#1.base|) |c_ULTIMATE.start_sll_circular_create_~last~0#1.offset| v_ArrVal_388))) |ULTIMATE.start_sll_circular_create_~new_head~0#1.base| v_ArrVal_398) |c_ULTIMATE.start_sll_circular_create_~head~0#1.base|))) (or (= (select .cse22 .cse2) |c_ULTIMATE.start_main_~data_init~0#1|) (= (select .cse22 .cse0) |c_ULTIMATE.start_main_~data_init~0#1|)))))) (forall ((|ULTIMATE.start_sll_circular_create_~new_head~0#1.base| Int)) (or (forall ((v_ArrVal_388 Int) (v_ArrVal_384 (Array Int Int)) (|ULTIMATE.start_sll_circular_create_~last~0#1.base| Int) (v_ArrVal_398 (Array Int Int))) (let ((.cse24 (select (store (let ((.cse25 (store |c_#memory_int| |ULTIMATE.start_sll_circular_create_~new_head~0#1.base| v_ArrVal_384))) (store .cse25 |ULTIMATE.start_sll_circular_create_~last~0#1.base| (store (select .cse25 |ULTIMATE.start_sll_circular_create_~last~0#1.base|) |c_ULTIMATE.start_sll_circular_create_~last~0#1.offset| v_ArrVal_388))) |ULTIMATE.start_sll_circular_create_~new_head~0#1.base| v_ArrVal_398) |c_ULTIMATE.start_sll_circular_create_~head~0#1.base|))) (or (= |c_ULTIMATE.start_main_~data_init~0#1| (select v_ArrVal_398 .cse0)) (= (select .cse24 .cse2) |c_ULTIMATE.start_main_~data_init~0#1|) (= (select .cse24 .cse0) |c_ULTIMATE.start_main_~data_init~0#1|)))) (= |ULTIMATE.start_sll_circular_create_~new_head~0#1.base| |c_ULTIMATE.start_sll_circular_create_~head~0#1.base|)))) .cse16) (forall ((|ULTIMATE.start_sll_circular_create_~new_head~0#1.base| Int)) (or (forall ((|ULTIMATE.start_sll_circular_create_~last~0#1.base| Int)) (or (= |ULTIMATE.start_sll_circular_create_~new_head~0#1.base| |ULTIMATE.start_sll_circular_create_~last~0#1.base|) (forall ((v_ArrVal_388 Int) (v_ArrVal_384 (Array Int Int)) (v_ArrVal_398 (Array Int Int))) (let ((.cse26 (select (store (let ((.cse27 (store |c_#memory_int| |ULTIMATE.start_sll_circular_create_~new_head~0#1.base| v_ArrVal_384))) (store .cse27 |ULTIMATE.start_sll_circular_create_~last~0#1.base| (store (select .cse27 |ULTIMATE.start_sll_circular_create_~last~0#1.base|) |c_ULTIMATE.start_sll_circular_create_~last~0#1.offset| v_ArrVal_388))) |ULTIMATE.start_sll_circular_create_~new_head~0#1.base| v_ArrVal_398) |c_ULTIMATE.start_sll_circular_create_~head~0#1.base|))) (or (= (select .cse26 .cse2) |c_ULTIMATE.start_main_~data_init~0#1|) (= (select .cse26 .cse0) |c_ULTIMATE.start_main_~data_init~0#1|)))))) (= |ULTIMATE.start_sll_circular_create_~new_head~0#1.base| |c_ULTIMATE.start_sll_circular_create_~head~0#1.base|))) (= (select |c_#valid| |c_ULTIMATE.start_sll_circular_create_~last~0#1.base|) 1) (or (and .cse20 (or (and .cse28 (not (= |c_ULTIMATE.start_sll_circular_create_~last~0#1.base| .cse29)) .cse8) .cse30)) .cse31) .cse8 (= |c_ULTIMATE.start_sll_circular_create_~last~0#1.offset| 0) .cse6 (forall ((|ULTIMATE.start_sll_circular_create_~new_head~0#1.base| Int)) (or (= |ULTIMATE.start_sll_circular_create_~new_head~0#1.base| |c_ULTIMATE.start_sll_circular_create_~head~0#1.base|) (forall ((|ULTIMATE.start_sll_circular_create_~last~0#1.base| Int)) (or (= |ULTIMATE.start_sll_circular_create_~new_head~0#1.base| |ULTIMATE.start_sll_circular_create_~last~0#1.base|) (forall ((v_ArrVal_388 Int) (v_ArrVal_384 (Array Int Int)) (v_ArrVal_398 (Array Int Int))) (= (select (select (store (let ((.cse32 (store |c_#memory_int| |ULTIMATE.start_sll_circular_create_~new_head~0#1.base| v_ArrVal_384))) (store .cse32 |ULTIMATE.start_sll_circular_create_~last~0#1.base| (store (select .cse32 |ULTIMATE.start_sll_circular_create_~last~0#1.base|) |c_ULTIMATE.start_sll_circular_create_~last~0#1.offset| v_ArrVal_388))) |ULTIMATE.start_sll_circular_create_~new_head~0#1.base| v_ArrVal_398) |c_ULTIMATE.start_sll_circular_create_~head~0#1.base|) .cse2) |c_ULTIMATE.start_main_~data_init~0#1|)))))) (= |c_ULTIMATE.start_sll_circular_create_~new_head~0#1.offset| 0) (or .cse28 .cse30))))))
(check-sat)
(exit)
